120
0 98 86 11 68 110 112 13 30 6 
48 89 34 115 62 40 76 3 97 19 
78 118 46 39 24 85 82 109 87 107 
8 50 2 67 93 60 44 117 81 101 
114 28 49 26 7 72 15 56 77 92 
43 27 103 73 38 74 111 88 91 51 
18 71 42 100 90 25 65 70 116 21 
33 113 69 10 105 20 14 29 36 55 
35 22 5 31 37 75 84 45 53 58 
64 96 12 4 17 83 9 16 66 79 
106 47 94 54 80 52 23 119 59 102 
61 99 104 41 57 63 95 108 32 1 
